0000000000000000
0000000000000000
0111111111111000
0000000000011100
0000000000001100
0000000000001100
0000000000001100
0000000000001100
0000000000001100
0000000000001100
0000000000001100
0000000000001100
0000000000011100
0111111111111000
0000000000000000
0000000000000000
